\ Model RMP_EVSP
\ LP format - for model browsing. Use MPS format to capture full model detail.
\ Signature: 0x44f91cf689475ad0
Minimize
  1e+09 q_0 + 1e+09 q_1 + 1e+09 q_2 + 1e+09 q_3 + 1e+09 q_4 + 1e+09 q_5
   + 1e+09 q_6 + 1e+09 q_7 + 1e+09 q_8 + 1e+09 q_9 + 1e+09 q_10
   + 1e+09 q_11 + 1e+09 q_12 + 1e+09 q_13 + 1e+09 q_14
Subject To
 trip_coverage_0: q_0 >= 1
 trip_coverage_1: q_1 >= 1
 trip_coverage_2: q_2 >= 1
 trip_coverage_3: q_3 >= 1
 trip_coverage_4: q_4 >= 1
 trip_coverage_5: q_5 >= 1
 trip_coverage_6: q_6 >= 1
 trip_coverage_7: q_7 >= 1
 trip_coverage_8: q_8 >= 1
 trip_coverage_9: q_9 >= 1
 trip_coverage_10: q_10 >= 1
 trip_coverage_11: q_11 >= 1
 trip_coverage_12: q_12 >= 1
 trip_coverage_13: q_13 >= 1
 trip_coverage_14: q_14 >= 1
Bounds
End
